(set-info :smt-lib-version 2.6)
(set-info :category "crafted")
(set-logic QF_FF)
(define-sort FF0 () (_ FiniteField 52435875175126190479447740508185965837690552500527637822603658699938581184513))
(declare-fun b () Bool)
(declare-fun e () Bool)
(declare-fun d () Bool)
(declare-fun a () Bool)
(declare-fun c () Bool)
(declare-fun f () Bool)
(declare-fun g () Bool)
(declare-fun j () Bool)
(declare-fun i () Bool)
(declare-fun h () Bool)
(declare-fun out () FF0)
(declare-fun _19 () FF0)
(declare-fun _14 () FF0)
(declare-fun _18 () FF0)
(declare-fun _16 () FF0)
(declare-fun _17 () FF0)
(declare-fun _8 () FF0)
(declare-fun _7 () FF0)
(declare-fun _15 () FF0)
(declare-fun _6 () FF0)
(declare-fun _9 () FF0)
(declare-fun _4 () FF0)
(declare-fun _13 () FF0)
(declare-fun _1 () FF0)
(declare-fun _12 () FF0)
(declare-fun _11 () FF0)
(declare-fun _3 () FF0)
(declare-fun _10 () FF0)
(declare-fun _5 () FF0)
(declare-fun _2 () FF0)
(declare-fun _0 () FF0)
(assert 
  (let ((let0 b))
  (let ((let1 e))
  (let ((let2 d))
  (let ((let3 a))
  (let ((let4 c))
  (let ((let5 (=> let4 let3)))
  (let ((let6 f))
  (let ((let7 (or let6 let5 let2 let1 let0)))
  (let ((let8 g))
  (let ((let9 j))
  (let ((let10 (or let1 let9 let8)))
  (let ((let11 i))
  (let ((let12 h))
  (let ((let13 (and let12 let11 let10 let7)))
  (let ((let14 out))
  (let ((let15 (as ff1 FF0)))
  (let ((let16 (= let15 let14)))
  (let ((let17 (= let16 let13)))
  (let ((let18 (as ff0 FF0)))
  (let ((let19 (= let18 let14)))
  (let ((let20 (or let16 let19)))
  (let ((let21 (and let20 let17)))
  (let ((let22 _19))
  (let ((let23 _14))
  (let ((let24 _18))
  (let ((let25 (ff.mul let24 let23)))
  (let ((let26 (= let25 let22)))
  (let ((let27 _16))
  (let ((let28 _17))
  (let ((let29 (ff.mul let28 let27)))
  (let ((let30 (= let29 let24)))
  (let ((let31 _8))
  (let ((let32 _7))
  (let ((let33 (ff.mul let32 let31)))
  (let ((let34 (= let33 let28)))
  (let ((let35 (as ff52435875175126190479447740508185965837690552500527637822603658699938581184512 FF0)))
  (let ((let36 (ff.mul let27 let35)))
  (let ((let37 _15))
  (let ((let38 _6))
  (let ((let39 (ff.add let38 let37 let36)))
  (let ((let40 (ff.mul let37 let38)))
  (let ((let41 (= let40 let39)))
  (let ((let42 (ff.mul let37 let35)))
  (let ((let43 _9))
  (let ((let44 _4))
  (let ((let45 (ff.add let44 let43 let42)))
  (let ((let46 (ff.mul let44 let43)))
  (let ((let47 (= let46 let45)))
  (let ((let48 (ff.mul let23 let35)))
  (let ((let49 _13))
  (let ((let50 _1))
  (let ((let51 (ff.add let50 let49 let48)))
  (let ((let52 (ff.mul let49 let50)))
  (let ((let53 (= let52 let51)))
  (let ((let54 (ff.mul let49 let35)))
  (let ((let55 _12))
  (let ((let56 (ff.add let44 let55 let54)))
  (let ((let57 (ff.mul let55 let44)))
  (let ((let58 (= let57 let56)))
  (let ((let59 (ff.mul let55 let35)))
  (let ((let60 _11))
  (let ((let61 _3))
  (let ((let62 (ff.add let61 let60 let59)))
  (let ((let63 (ff.mul let60 let61)))
  (let ((let64 (= let63 let62)))
  (let ((let65 (ff.mul let60 let35)))
  (let ((let66 _10))
  (let ((let67 _5))
  (let ((let68 (ff.add let67 let66 let65)))
  (let ((let69 (ff.mul let67 let66)))
  (let ((let70 (= let69 let68)))
  (let ((let71 (ff.mul let66 let35)))
  (let ((let72 _2))
  (let ((let73 (ff.mul let72 let35)))
  (let ((let74 _0))
  (let ((let75 (ff.add let74 let73 let71 let15)))
  (let ((let76 (ff.add let73 let15)))
  (let ((let77 (ff.mul let76 let74)))
  (let ((let78 (= let77 let75)))
  (let ((let79 (ff.mul let43 let43)))
  (let ((let80 (= let79 let43)))
  (let ((let81 (ff.mul let31 let31)))
  (let ((let82 (= let81 let31)))
  (let ((let83 (ff.mul let32 let32)))
  (let ((let84 (= let83 let32)))
  (let ((let85 (ff.mul let38 let38)))
  (let ((let86 (= let85 let38)))
  (let ((let87 (ff.mul let67 let67)))
  (let ((let88 (= let87 let67)))
  (let ((let89 (ff.mul let44 let44)))
  (let ((let90 (= let89 let44)))
  (let ((let91 (ff.mul let61 let61)))
  (let ((let92 (= let91 let61)))
  (let ((let93 (ff.mul let72 let72)))
  (let ((let94 (= let93 let72)))
  (let ((let95 (ff.mul let50 let50)))
  (let ((let96 (= let95 let50)))
  (let ((let97 (ff.mul let74 let74)))
  (let ((let98 (= let97 let74)))
  (let ((let99 (and let98 let96 let94 let92 let90 let88 let86 let84 let82 let80 let78 let70 let64 let58 let53 let47 let41 let34 let30 let26)))
  (let ((let100 (ite let9 let15 let18)))
  (let ((let101 (= let43 let100)))
  (let ((let102 (ite let11 let15 let18)))
  (let ((let103 (= let31 let102)))
  (let ((let104 (ite let8 let15 let18)))
  (let ((let105 (= let38 let104)))
  (let ((let106 (ite let0 let15 let18)))
  (let ((let107 (= let50 let106)))
  (let ((let108 (ite let4 let15 let18)))
  (let ((let109 (= let72 let108)))
  (let ((let110 (ite let2 let15 let18)))
  (let ((let111 (= let61 let110)))
  (let ((let112 (ite let1 let15 let18)))
  (let ((let113 (= let44 let112)))
  (let ((let114 (ite let12 let15 let18)))
  (let ((let115 (= let32 let114)))
  (let ((let116 (ite let6 let15 let18)))
  (let ((let117 (= let67 let116)))
  (let ((let118 (ite let3 let15 let18)))
  (let ((let119 (= let74 let118)))
  (let ((let120 (and let119 let117 let115 let113 let111 let109 let107 let105 let103 let101)))
  (let ((let121 (and let120 let99)))
  (let ((let122 (=> let121 let21)))
  (let ((let123 (not let122)))
  let123
))))))))))))))))))))))))))))))))))))))))))))))))))))))))))))))))))))))))))))))))))))))))))))))))))))))))))))))))))))))))))))
)
(check-sat)
